(set-info :smt-lib-version 2.6)
(set-logic UF)
(set-info :source |Benchmarks from the paper: "Extending Sledgehammer with SMT Solvers" by Jasmin Blanchette, Sascha Bohme, and Lawrence C. Paulson, CADE 2011.  Translated to SMT2 by Andrew Reynolds and Morgan Deters.|)
(set-info :category "industrial")
(set-info :status unknown)
(declare-sort S1 0)
(declare-sort S2 0)
(declare-sort S3 0)
(declare-sort S4 0)
(declare-sort S5 0)
(declare-sort S6 0)
(declare-sort S7 0)
(declare-sort S8 0)
(declare-sort S9 0)
(declare-sort S10 0)
(declare-sort S11 0)
(declare-sort S12 0)
(declare-sort S13 0)
(declare-sort S14 0)
(declare-sort S15 0)
(declare-sort S16 0)
(declare-sort S17 0)
(declare-sort S18 0)
(declare-sort S19 0)
(declare-sort S20 0)
(declare-sort S21 0)
(declare-sort S22 0)
(declare-sort S23 0)
(declare-fun f1 () S1)
(declare-fun f2 () S1)
(declare-fun f3 (S2 S2) S1)
(declare-fun f4 (S3 S4) S2)
(declare-fun f5 () S3)
(declare-fun f6 (S5 S4) S4)
(declare-fun f7 (S6 S4) S5)
(declare-fun f8 () S6)
(declare-fun f9 () S4)
(declare-fun f10 () S6)
(declare-fun f11 (S7 S8) S4)
(declare-fun f12 (S9 S4) S7)
(declare-fun f13 () S9)
(declare-fun f14 (S10 S2) S4)
(declare-fun f15 () S10)
(declare-fun f16 () S2)
(declare-fun f17 () S4)
(declare-fun f18 () S8)
(declare-fun f19 () S4)
(declare-fun f20 (S11 S12) S5)
(declare-fun f21 () S11)
(declare-fun f22 () S12)
(declare-fun f23 () S2)
(declare-fun f24 (S2 S2) S1)
(declare-fun f25 (S13 S2) S2)
(declare-fun f26 (S14 S2) S13)
(declare-fun f27 () S14)
(declare-fun f28 () S13)
(declare-fun f29 () S14)
(declare-fun f30 (S15 S8) S2)
(declare-fun f31 (S16 S2) S15)
(declare-fun f32 () S16)
(declare-fun f33 (S5) S1)
(declare-fun f34 () S12)
(declare-fun f35 () S8)
(declare-fun f36 () S4)
(declare-fun f37 () S2)
(declare-fun f38 () S2)
(declare-fun f39 () S5)
(declare-fun f40 (S8 S8) S1)
(declare-fun f41 () S8)
(declare-fun f42 (S17 S8) S8)
(declare-fun f43 (S18 S8) S17)
(declare-fun f44 () S18)
(declare-fun f45 () S18)
(declare-fun f46 () S14)
(declare-fun f47 (S19 S19) S1)
(declare-fun f48 () S19)
(declare-fun f49 (S20 S19) S19)
(declare-fun f50 (S21 S19) S20)
(declare-fun f51 () S21)
(declare-fun f52 (S22 S8) S19)
(declare-fun f53 (S23 S19) S22)
(declare-fun f54 () S23)
(declare-fun f55 () S13)
(declare-fun f56 () S13)
(declare-fun f57 () S18)
(declare-fun f58 () S12)
(declare-fun f59 () S13)
(declare-fun f60 () S13)
(declare-fun f61 () S19)
(declare-fun f62 (S19 S19) S1)
(declare-fun f63 (S8 S8) S1)
(declare-fun f64 () S20)
(declare-fun f65 () S20)
(declare-fun f66 () S6)
(assert (not (= f1 f2)))
(assert (let ((?v_0 (f6 (f7 f10 (f14 f15 f16)) f17))) (not (= (f3 (f4 f5 (f6 (f7 f8 f9) (f6 (f7 f10 (f11 (f12 f13 ?v_0) f18)) (f6 (f7 f8 f19) (f6 (f7 f10 ?v_0) (f6 (f20 f21 f22) ?v_0)))))) f23) f1))))
(assert (let ((?v_0 (f6 (f7 f10 (f14 f15 f16)) f17))) (let ((?v_1 (f7 f10 (f11 (f12 f13 ?v_0) f18))) (?v_2 (f6 (f20 f21 f22) ?v_0))) (= (f24 (f4 f5 (f6 (f7 f8 f9) (f6 ?v_1 (f6 (f7 f8 f19) (f6 (f7 f10 ?v_0) ?v_2))))) (f25 (f26 f27 (f25 f28 (f25 (f26 f29 f23) (f30 (f31 f32 f16) f18)))) (f4 f5 (f6 (f7 f10 (f6 ?v_1 ?v_0)) ?v_2)))) f1))))
(assert (let ((?v_0 (f6 (f7 f10 (f14 f15 f16)) f17))) (= (f3 (f25 (f26 f27 (f25 f28 (f25 (f26 f29 f23) (f30 (f31 f32 f16) f18)))) (f4 f5 (f6 (f7 f10 (f6 (f7 f10 (f11 (f12 f13 ?v_0) f18)) ?v_0)) (f6 (f20 f21 f22) ?v_0)))) f23) f1)))
(assert (= (f3 f16 f23) f1))
(assert (not (= (f33 (f20 f21 f34)) f1)))
(assert (not (= f18 f35)))
(assert (not (= f19 f36)))
(assert (= (f3 f37 f16) f1))
(assert (= (f24 (f4 f5 (f6 (f7 f10 (f14 f15 f16)) f17)) (f4 f5 f17)) f1))
(assert (let ((?v_0 (f6 (f7 f10 (f14 f15 f16)) f17))) (= (f3 (f25 (f26 f27 (f25 f28 (f25 (f26 f29 f23) (f30 (f31 f32 f16) f18)))) (f4 f5 (f6 (f7 f10 (f6 (f7 f10 (f11 (f12 f13 ?v_0) f18)) ?v_0)) (f6 (f20 f21 f22) ?v_0)))) f23) f1)))
(assert (let ((?v_1 (f7 f8 f9)) (?v_2 (f14 f15 f16))) (let ((?v_0 (f6 (f7 f10 ?v_2) f17))) (let ((?v_3 (f7 f10 (f11 (f12 f13 ?v_0) f18))) (?v_4 (f6 (f20 f21 f22) ?v_0))) (= (f6 ?v_1 (f6 ?v_3 (f6 (f7 f8 f19) (f6 (f7 f10 ?v_0) ?v_4)))) (f6 (f7 f8 (f6 ?v_1 (f6 (f7 f10 (f11 (f12 f13 ?v_2) f18)) (f6 (f7 f10 (f11 (f12 f13 f17) f18)) f19)))) (f6 (f7 f10 (f6 ?v_3 ?v_0)) ?v_4)))))))
(assert (forall ((?v0 S4)) (=> (= (f24 (f4 f5 ?v0) (f4 f5 f17)) f1) (= (f24 (f4 f5 (f6 (f20 f21 f22) ?v0)) f38) f1))))
(assert (let ((?v_0 (f6 (f7 f10 (f14 f15 f16)) f17))) (= (f3 (f4 f5 (f6 (f7 f10 (f6 (f7 f10 (f11 (f12 f13 ?v_0) f18)) ?v_0)) (f6 (f20 f21 f22) ?v_0))) (f30 (f31 f32 f16) f18)) f1)))
(assert (= (f24 (f30 (f31 f32 f16) f18) f23) f1))
(assert (let ((?v_0 (f6 (f7 f10 (f14 f15 f16)) f17))) (let ((?v_1 (f7 f10 (f11 (f12 f13 ?v_0) f18))) (?v_2 (f6 (f20 f21 f22) ?v_0))) (= (f24 (f4 f5 (f6 (f7 f8 f9) (f6 ?v_1 (f6 (f7 f8 f19) (f6 (f7 f10 ?v_0) ?v_2))))) (f25 (f26 f27 (f25 f28 (f25 (f26 f29 f23) (f30 (f31 f32 f16) f18)))) (f4 f5 (f6 (f7 f10 (f6 ?v_1 ?v_0)) ?v_2)))) f1))))
(assert (= (f6 (f7 f8 f9) (f6 (f7 f10 (f11 (f12 f13 f17) f18)) f19)) f36))
(assert (let ((?v_0 (f6 (f7 f10 (f14 f15 f16)) f17))) (let ((?v_1 (f7 f10 (f11 (f12 f13 ?v_0) f18))) (?v_2 (f6 (f20 f21 f22) ?v_0))) (= (f6 (f7 f8 f9) (f6 ?v_1 (f6 (f7 f8 f19) (f6 (f7 f10 ?v_0) ?v_2)))) (f6 (f7 f8 (f14 f15 (f25 (f26 f29 f23) (f30 (f31 f32 f16) f18)))) (f6 (f7 f10 (f6 ?v_1 ?v_0)) ?v_2))))))
(assert (let ((?v_0 (f14 f15 f16))) (let ((?v_1 (f6 (f7 f10 ?v_0) f17))) (let ((?v_2 (f6 (f7 f10 (f6 (f7 f10 (f11 (f12 f13 ?v_1) f18)) ?v_1)) (f6 (f20 f21 f22) ?v_1)))) (= (f6 (f7 f8 (f6 (f7 f8 f9) (f6 (f7 f10 (f11 (f12 f13 ?v_0) f18)) (f6 (f7 f10 (f11 (f12 f13 f17) f18)) f19)))) ?v_2) (f6 (f7 f8 (f14 f15 (f25 (f26 f29 f23) (f30 (f31 f32 f16) f18)))) ?v_2))))))
(assert (let ((?v_0 (f6 (f7 f10 (f14 f15 f16)) f17))) (let ((?v_1 (f7 f10 (f11 (f12 f13 ?v_0) f18))) (?v_2 (f6 (f20 f21 f22) ?v_0))) (= (f4 f5 (f6 (f7 f8 f9) (f6 ?v_1 (f6 (f7 f8 f19) (f6 (f7 f10 ?v_0) ?v_2))))) (f4 f5 (f6 (f7 f8 (f14 f15 (f25 (f26 f29 f23) (f30 (f31 f32 f16) f18)))) (f6 (f7 f10 (f6 ?v_1 ?v_0)) ?v_2)))))))
(assert (let ((?v_0 (f6 (f7 f10 (f14 f15 f16)) f17))) (let ((?v_2 (f6 (f7 f10 (f6 (f7 f10 (f11 (f12 f13 ?v_0) f18)) ?v_0)) (f6 (f20 f21 f22) ?v_0))) (?v_1 (f14 f15 (f25 (f26 f29 f23) (f30 (f31 f32 f16) f18))))) (= (f24 (f4 f5 (f6 (f7 f8 ?v_1) ?v_2)) (f25 (f26 f27 (f4 f5 ?v_1)) (f4 f5 ?v_2))) f1))))
(assert (= (f6 (f7 f10 (f11 (f12 f13 f17) f18)) f19) (f6 f39 f9)))
(assert (=> (forall ((?v0 S4)) (=> (= (f6 (f7 f8 f9) (f6 (f7 f10 (f11 (f12 f13 ?v0) f18)) f19)) f36) false)) false))
(assert (forall ((?v0 S8) (?v1 S8)) (=> (= (f40 f41 ?v0) f1) (= (f40 f41 (f42 (f43 f44 ?v0) (f42 (f43 f45 ?v0) ?v1))) f1))))
(assert (forall ((?v0 S2) (?v1 S8)) (=> (= (f3 f23 ?v0) f1) (= (f3 f23 (f25 (f26 f46 ?v0) (f30 (f31 f32 ?v0) ?v1))) f1))))
(assert (forall ((?v0 S19) (?v1 S8)) (=> (= (f47 f48 ?v0) f1) (= (f47 f48 (f49 (f50 f51 ?v0) (f52 (f53 f54 ?v0) ?v1))) f1))))
(assert (forall ((?v0 S8) (?v1 S8)) (let ((?v_0 (f42 (f43 f45 ?v0) ?v1))) (=> (= (f40 f41 ?v0) f1) (= (f40 ?v_0 (f42 (f43 f44 ?v0) ?v_0)) f1)))))
(assert (forall ((?v0 S2) (?v1 S8)) (let ((?v_0 (f30 (f31 f32 ?v0) ?v1))) (=> (= (f3 f23 ?v0) f1) (= (f3 ?v_0 (f25 (f26 f46 ?v0) ?v_0)) f1)))))
(assert (forall ((?v0 S19) (?v1 S8)) (let ((?v_0 (f52 (f53 f54 ?v0) ?v1))) (=> (= (f47 f48 ?v0) f1) (= (f47 ?v_0 (f49 (f50 f51 ?v0) ?v_0)) f1)))))
(assert (= (f14 f15 f23) f9))
(assert (= (f25 f55 f23) f23))
(assert (= (f25 f56 f23) f23))
(assert (= (f4 f5 f9) f23))
(assert (forall ((?v0 S2) (?v1 S2) (?v2 S2) (?v3 S2)) (=> (= (f3 (f25 f56 ?v0) ?v1) f1) (=> (= (f3 (f25 f56 ?v2) ?v3) f1) (= (f3 (f25 f56 (f25 (f26 f27 ?v0) ?v2)) (f25 (f26 f27 ?v1) ?v3)) f1)))))
(assert (forall ((?v0 S4) (?v1 S2) (?v2 S4) (?v3 S2)) (=> (= (f3 (f4 f5 ?v0) ?v1) f1) (=> (= (f3 (f4 f5 ?v2) ?v3) f1) (= (f3 (f4 f5 (f6 (f7 f8 ?v0) ?v2)) (f25 (f26 f27 ?v1) ?v3)) f1)))))
(assert (forall ((?v0 S2) (?v1 S2) (?v2 S2) (?v3 S2)) (=> (= (f3 (f25 f56 ?v0) ?v1) f1) (=> (= (f3 (f25 f56 ?v2) ?v3) f1) (= (f3 (f25 f56 (f25 (f26 f46 ?v0) ?v2)) (f25 (f26 f46 ?v1) ?v3)) f1)))))
(assert (forall ((?v0 S4) (?v1 S2) (?v2 S4) (?v3 S2)) (=> (= (f3 (f4 f5 ?v0) ?v1) f1) (=> (= (f3 (f4 f5 ?v2) ?v3) f1) (= (f3 (f4 f5 (f6 (f7 f10 ?v0) ?v2)) (f25 (f26 f46 ?v1) ?v3)) f1)))))
(assert (forall ((?v0 S8) (?v1 S8) (?v2 S8)) (let ((?v_0 (f43 f45 ?v0))) (=> (= (f40 f41 ?v0) f1) (= (= (f42 ?v_0 ?v1) (f42 ?v_0 ?v2)) (= ?v1 ?v2))))))
(assert (forall ((?v0 S2) (?v1 S8) (?v2 S8)) (let ((?v_0 (f31 f32 ?v0))) (=> (= (f3 f23 ?v0) f1) (= (= (f30 ?v_0 ?v1) (f30 ?v_0 ?v2)) (= ?v1 ?v2))))))
(assert (forall ((?v0 S19) (?v1 S8) (?v2 S8)) (let ((?v_0 (f53 f54 ?v0))) (=> (= (f47 f48 ?v0) f1) (= (= (f52 ?v_0 ?v1) (f52 ?v_0 ?v2)) (= ?v1 ?v2))))))
(assert (forall ((?v0 S8) (?v1 S8) (?v2 S8)) (let ((?v_0 (f43 f45 ?v0))) (=> (= (f40 f41 ?v0) f1) (= (= (f40 (f42 ?v_0 ?v1) (f42 ?v_0 ?v2)) f1) (= (f40 ?v1 ?v2) f1))))))
(assert (forall ((?v0 S2) (?v1 S8) (?v2 S8)) (let ((?v_0 (f31 f32 ?v0))) (=> (= (f3 f23 ?v0) f1) (= (= (f3 (f30 ?v_0 ?v1) (f30 ?v_0 ?v2)) f1) (= (f40 ?v1 ?v2) f1))))))
(assert (forall ((?v0 S19) (?v1 S8) (?v2 S8)) (let ((?v_0 (f53 f54 ?v0))) (=> (= (f47 f48 ?v0) f1) (= (= (f47 (f52 ?v_0 ?v1) (f52 ?v_0 ?v2)) f1) (= (f40 ?v1 ?v2) f1))))))
(assert (forall ((?v0 S8) (?v1 S8) (?v2 S8)) (let ((?v_0 (f43 f45 ?v0))) (=> (= (f40 f41 ?v0) f1) (=> (= (f40 (f42 ?v_0 ?v1) (f42 ?v_0 ?v2)) f1) (= (f40 ?v1 ?v2) f1))))))
(assert (forall ((?v0 S2) (?v1 S8) (?v2 S8)) (let ((?v_0 (f31 f32 ?v0))) (=> (= (f3 f23 ?v0) f1) (=> (= (f3 (f30 ?v_0 ?v1) (f30 ?v_0 ?v2)) f1) (= (f40 ?v1 ?v2) f1))))))
(assert (forall ((?v0 S19) (?v1 S8) (?v2 S8)) (let ((?v_0 (f53 f54 ?v0))) (=> (= (f47 f48 ?v0) f1) (=> (= (f47 (f52 ?v_0 ?v1) (f52 ?v_0 ?v2)) f1) (= (f40 ?v1 ?v2) f1))))))
(assert (= (f3 f37 f38) f1))
(assert (not (= f17 f36)))
(assert (forall ((?v0 S2)) (=> (= (f3 f37 ?v0) f1) (exists ((?v1 S2)) (and (= (f3 f37 ?v1) f1) (and (= (f3 ?v1 f23) f1) (= (f3 ?v1 ?v0) f1)))))))
(assert (= (f3 f37 (f30 (f31 f32 f16) f18)) f1))
(assert (forall ((?v0 S2) (?v1 S2)) (=> (= (f24 f37 ?v0) f1) (=> (= (f3 ?v0 ?v1) f1) (=> (= (f24 ?v1 f23) f1) (= (f3 (f25 (f26 f27 (f25 f28 (f25 (f26 f29 f23) ?v1))) ?v0) f23) f1))))))
(assert (let ((?v_0 (f4 f5 f17))) (= (f24 (f25 (f26 f46 f16) ?v_0) (f25 (f26 f46 f23) ?v_0)) f1)))
(assert (=> (= (f24 f37 f16) f1) (=> (= (f40 f35 f18) f1) (= (f3 (f30 (f31 f32 f16) f18) (f30 (f31 f32 f23) f18)) f1))))
(assert (let ((?v_0 (f26 f46 (f30 (f31 f32 f16) f18)))) (= (f3 (f25 ?v_0 (f25 (f26 f46 f16) (f25 (f26 f46 (f30 (f31 f32 (f4 f5 f17)) (f42 (f43 f57 f18) f41))) f38))) (f25 ?v_0 f23)) f1)))
(assert (= (f3 (f25 (f26 f46 f16) (f25 (f26 f46 (f30 (f31 f32 (f4 f5 f17)) (f42 (f43 f57 f18) f41))) f38)) f23) f1))
(assert (let ((?v_0 (f6 (f7 f10 (f14 f15 f16)) f17))) (let ((?v_1 (f6 (f20 f21 f22) ?v_0))) (= (f4 f5 (f6 (f7 f10 (f6 (f7 f10 (f11 (f12 f13 ?v_0) f18)) ?v_0)) ?v_1)) (f25 (f26 f46 (f30 (f31 f32 f16) f18)) (f25 (f26 f46 f16) (f25 (f26 f46 (f30 (f31 f32 (f4 f5 f17)) (f42 (f43 f57 f18) f41))) (f4 f5 ?v_1))))))))
(assert (exists ((?v0 S2)) (and (= (f3 f37 ?v0) f1) (forall ((?v1 S4)) (=> (= (f24 (f4 f5 ?v1) (f4 f5 f17)) f1) (= (f24 (f4 f5 (f6 (f20 f21 f22) ?v1)) ?v0) f1))))))
(assert (not (= (f33 (f20 f21 f58)) f1)))
(assert (let ((?v_0 (f6 (f7 f10 (f14 f15 f16)) f17))) (= (f24 (f4 f5 (f6 (f7 f10 (f6 (f7 f10 (f11 (f12 f13 ?v_0) f18)) ?v_0)) (f6 (f20 f21 f22) ?v_0))) (f25 (f26 f46 (f30 (f31 f32 f16) f18)) (f25 (f26 f46 f16) (f25 (f26 f46 (f30 (f31 f32 (f4 f5 f17)) (f42 (f43 f57 f18) f41))) f38)))) f1)))
(assert (= (f3 f16 (f25 f59 (f25 (f26 f46 (f30 (f31 f32 (f4 f5 f17)) (f42 (f43 f57 f18) f41))) f38))) f1))
(assert (=> (forall ((?v0 S2)) (=> (= (f3 f37 ?v0) f1) (=> (forall ((?v1 S4)) (=> (= (f24 (f4 f5 ?v1) (f4 f5 f17)) f1) (= (f24 (f4 f5 (f6 (f20 f21 f22) ?v1)) ?v0) f1))) false))) false))
(assert (= (f14 f15 f37) f36))
(assert (= (f25 f55 f37) f37))
(assert (= (f14 f15 f37) f36))
(assert (= (f25 f55 f37) f37))
(assert (= (f25 f56 f37) f37))
(assert (= (f4 f5 f36) f37))
(assert (forall ((?v0 S2)) (= (f25 f56 ?v0) (f25 f28 ?v0))))
(assert (forall ((?v0 S2)) (= (f14 f15 (f25 f60 ?v0)) (f6 f39 (f14 f15 ?v0)))))
(assert (forall ((?v0 S2)) (= (f25 f55 (f25 f60 ?v0)) (f25 f60 (f25 f55 ?v0)))))
(assert (forall ((?v0 S2)) (= (f14 f15 (f25 f60 ?v0)) (f6 f39 (f14 f15 ?v0)))))
(assert (forall ((?v0 S2)) (= (f25 f55 (f25 f60 ?v0)) (f25 f60 (f25 f55 ?v0)))))
(assert (forall ((?v0 S8) (?v1 S8)) (= (= (f40 f35 (f42 (f43 f45 ?v0) ?v1)) f1) (or (= (f40 f35 ?v0) f1) (= ?v1 f35)))))
(assert (forall ((?v0 S2)) (= (= (f14 f15 ?v0) f36) (= ?v0 f37))))
(assert (forall ((?v0 S2)) (= (= (f25 f55 ?v0) f37) (= ?v0 f37))))
(assert (forall ((?v0 S2)) (= (= (f25 f56 ?v0) f37) (= ?v0 f37))))
(assert (forall ((?v0 S4)) (= (= (f4 f5 ?v0) f37) (= ?v0 f36))))
(assert (forall ((?v0 S2)) (= (= (f24 (f25 f56 ?v0) f37) f1) (= ?v0 f37))))
(assert (forall ((?v0 S4)) (= (= (f24 (f4 f5 ?v0) f37) f1) (= ?v0 f36))))
(assert (forall ((?v0 S19) (?v1 S8)) (= (= (f52 (f53 f54 ?v0) ?v1) f61) (and (= ?v0 f61) (not (= ?v1 f35))))))
(assert (forall ((?v0 S2) (?v1 S8)) (= (= (f30 (f31 f32 ?v0) ?v1) f37) (and (= ?v0 f37) (not (= ?v1 f35))))))
(assert (forall ((?v0 S4) (?v1 S8)) (= (= (f11 (f12 f13 ?v0) ?v1) f36) (and (= ?v0 f36) (not (= ?v1 f35))))))
(assert (forall ((?v0 S8) (?v1 S8)) (= (= (f42 (f43 f45 ?v0) ?v1) f35) (and (= ?v0 f35) (not (= ?v1 f35))))))
(assert (forall ((?v0 S8) (?v1 S8) (?v2 S8)) (let ((?v_0 (f43 f45 ?v0))) (=> (= (f40 f35 ?v0) f1) (=> (= (f40 (f42 ?v_0 ?v1) (f42 ?v_0 ?v2)) f1) (= (f40 ?v1 ?v2) f1))))))
(assert (forall ((?v0 S19) (?v1 S8) (?v2 S19)) (=> (= (f52 (f53 f54 ?v0) ?v1) (f52 (f53 f54 ?v2) ?v1)) (=> (= (f62 f61 ?v0) f1) (=> (= (f62 f61 ?v2) f1) (=> (= (f40 f35 ?v1) f1) (= ?v0 ?v2)))))))
(assert (forall ((?v0 S2) (?v1 S8) (?v2 S2)) (=> (= (f30 (f31 f32 ?v0) ?v1) (f30 (f31 f32 ?v2) ?v1)) (=> (= (f24 f37 ?v0) f1) (=> (= (f24 f37 ?v2) f1) (=> (= (f40 f35 ?v1) f1) (= ?v0 ?v2)))))))
(assert (forall ((?v0 S8) (?v1 S8) (?v2 S8)) (=> (= (f42 (f43 f45 ?v0) ?v1) (f42 (f43 f45 ?v2) ?v1)) (=> (= (f63 f35 ?v0) f1) (=> (= (f63 f35 ?v2) f1) (=> (= (f40 f35 ?v1) f1) (= ?v0 ?v2)))))))
(assert (forall ((?v0 S2) (?v1 S8)) (= (f24 f37 (f30 (f31 f32 (f25 f28 ?v0)) ?v1)) f1)))
(assert (forall ((?v0 S19) (?v1 S8)) (= (f62 f61 (f52 (f53 f54 (f49 f64 ?v0)) ?v1)) f1)))
(assert (forall ((?v0 S2) (?v1 S8)) (= (f25 f28 (f30 (f31 f32 (f25 f60 ?v0)) ?v1)) (f25 f28 (f30 (f31 f32 ?v0) ?v1)))))
(assert (forall ((?v0 S19) (?v1 S8)) (= (f49 f64 (f52 (f53 f54 (f49 f65 ?v0)) ?v1)) (f49 f64 (f52 (f53 f54 ?v0) ?v1)))))
(assert (forall ((?v0 S19) (?v1 S19) (?v2 S8)) (=> (= (f62 ?v0 ?v1) f1) (=> (= (f62 f61 ?v0) f1) (= (f62 (f52 (f53 f54 ?v0) ?v2) (f52 (f53 f54 ?v1) ?v2)) f1)))))
(assert (forall ((?v0 S2) (?v1 S2) (?v2 S8)) (=> (= (f24 ?v0 ?v1) f1) (=> (= (f24 f37 ?v0) f1) (= (f24 (f30 (f31 f32 ?v0) ?v2) (f30 (f31 f32 ?v1) ?v2)) f1)))))
(assert (forall ((?v0 S8) (?v1 S8) (?v2 S8)) (=> (= (f63 ?v0 ?v1) f1) (=> (= (f63 f35 ?v0) f1) (= (f63 (f42 (f43 f45 ?v0) ?v2) (f42 (f43 f45 ?v1) ?v2)) f1)))))
(assert (forall ((?v0 S19) (?v1 S8)) (=> (= (f62 f61 ?v0) f1) (= (f62 f61 (f52 (f53 f54 ?v0) ?v1)) f1))))
(assert (forall ((?v0 S2) (?v1 S8)) (=> (= (f24 f37 ?v0) f1) (= (f24 f37 (f30 (f31 f32 ?v0) ?v1)) f1))))
(assert (forall ((?v0 S8) (?v1 S8)) (=> (= (f63 f35 ?v0) f1) (= (f63 f35 (f42 (f43 f45 ?v0) ?v1)) f1))))
(assert (forall ((?v0 S2)) (= (f24 f37 (f25 f56 ?v0)) f1)))
(assert (forall ((?v0 S4)) (= (f24 f37 (f4 f5 ?v0)) f1)))
(assert (forall ((?v0 S2) (?v1 S2)) (= (f25 (f26 f46 (f25 f60 ?v0)) ?v1) (f25 f60 (f25 (f26 f46 ?v0) ?v1)))))
(assert (forall ((?v0 S4) (?v1 S4)) (= (f6 (f7 f10 (f6 f39 ?v0)) ?v1) (f6 f39 (f6 (f7 f10 ?v0) ?v1)))))
(assert (forall ((?v0 S2) (?v1 S2)) (= (f25 (f26 f46 (f25 f60 ?v0)) ?v1) (f25 f60 (f25 (f26 f46 ?v0) ?v1)))))
(assert (forall ((?v0 S4) (?v1 S4)) (= (f6 (f7 f10 (f6 f39 ?v0)) ?v1) (f6 f39 (f6 (f7 f10 ?v0) ?v1)))))
(assert (forall ((?v0 S2) (?v1 S2)) (let ((?v_0 (f26 f46 ?v0))) (= (f25 ?v_0 (f25 f60 ?v1)) (f25 f60 (f25 ?v_0 ?v1))))))
(assert (forall ((?v0 S4) (?v1 S4)) (let ((?v_0 (f7 f10 ?v0))) (= (f6 ?v_0 (f6 f39 ?v1)) (f6 f39 (f6 ?v_0 ?v1))))))
(assert (forall ((?v0 S2) (?v1 S2)) (let ((?v_0 (f26 f46 ?v0))) (= (f25 ?v_0 (f25 f60 ?v1)) (f25 f60 (f25 ?v_0 ?v1))))))
(assert (forall ((?v0 S4) (?v1 S4)) (let ((?v_0 (f7 f10 ?v0))) (= (f6 ?v_0 (f6 f39 ?v1)) (f6 f39 (f6 ?v_0 ?v1))))))
(assert (forall ((?v0 S2)) (= (f25 f56 (f25 f60 ?v0)) (f25 f56 ?v0))))
(assert (forall ((?v0 S4)) (= (f4 f5 (f6 f39 ?v0)) (f4 f5 ?v0))))
(assert (forall ((?v0 S2) (?v1 S2)) (= (f24 (f25 f28 (f25 (f26 f29 (f25 f56 ?v0)) (f25 f56 ?v1))) (f25 f56 (f25 (f26 f29 ?v0) ?v1))) f1)))
(assert (forall ((?v0 S4) (?v1 S4)) (= (f24 (f25 f28 (f25 (f26 f29 (f4 f5 ?v0)) (f4 f5 ?v1))) (f4 f5 (f6 (f7 f66 ?v0) ?v1))) f1)))
(assert (forall ((?v0 S8) (?v1 S8) (?v2 S8)) (let ((?v_0 (f43 f45 ?v0))) (= (f42 ?v_0 (f42 (f43 f44 ?v1) ?v2)) (f42 (f43 f45 (f42 ?v_0 ?v1)) ?v2)))))
(assert (forall ((?v0 S2) (?v1 S8) (?v2 S8)) (let ((?v_0 (f31 f32 ?v0))) (= (f30 ?v_0 (f42 (f43 f44 ?v1) ?v2)) (f30 (f31 f32 (f30 ?v_0 ?v1)) ?v2)))))
(assert (forall ((?v0 S4) (?v1 S8) (?v2 S8)) (let ((?v_0 (f12 f13 ?v0))) (= (f11 ?v_0 (f42 (f43 f44 ?v1) ?v2)) (f11 (f12 f13 (f11 ?v_0 ?v1)) ?v2)))))
(assert (forall ((?v0 S19) (?v1 S8) (?v2 S8)) (let ((?v_0 (f53 f54 ?v0))) (= (f52 ?v_0 (f42 (f43 f44 ?v1) ?v2)) (f52 (f53 f54 (f52 ?v_0 ?v1)) ?v2)))))
(assert (forall ((?v0 S2)) (= (f25 (f26 f46 ?v0) f37) f37)))
(assert (forall ((?v0 S4)) (= (f6 (f7 f10 ?v0) f36) f36)))
(assert (forall ((?v0 S2)) (= (f25 (f26 f46 ?v0) f37) f37)))
(assert (forall ((?v0 S4)) (= (f6 (f7 f10 ?v0) f36) f36)))
(assert (forall ((?v0 S2)) (= (f25 (f26 f46 f37) ?v0) f37)))
(assert (forall ((?v0 S4)) (= (f6 (f7 f10 f36) ?v0) f36)))
(assert (forall ((?v0 S2)) (= (f25 (f26 f46 f37) ?v0) f37)))
(assert (forall ((?v0 S4)) (= (f6 (f7 f10 f36) ?v0) f36)))
(assert (forall ((?v0 S8)) (= (f42 (f43 f45 ?v0) f41) ?v0)))
(assert (forall ((?v0 S2)) (= (f30 (f31 f32 ?v0) f41) ?v0)))
(assert (forall ((?v0 S4)) (= (f11 (f12 f13 ?v0) f41) ?v0)))
(assert (forall ((?v0 S19)) (= (f52 (f53 f54 ?v0) f41) ?v0)))
(assert (forall ((?v0 S8) (?v1 S8) (?v2 S8)) (let ((?v_0 (f43 f45 ?v2))) (=> (= (f63 ?v0 ?v1) f1) (=> (= (f63 f35 ?v2) f1) (=> (= (f63 ?v2 f41) f1) (= (f63 (f42 ?v_0 ?v1) (f42 ?v_0 ?v0)) f1)))))))
(assert (forall ((?v0 S8) (?v1 S8) (?v2 S2)) (let ((?v_0 (f31 f32 ?v2))) (=> (= (f63 ?v0 ?v1) f1) (=> (= (f24 f37 ?v2) f1) (=> (= (f24 ?v2 f23) f1) (= (f24 (f30 ?v_0 ?v1) (f30 ?v_0 ?v0)) f1)))))))
(assert (forall ((?v0 S8) (?v1 S8) (?v2 S19)) (let ((?v_0 (f53 f54 ?v2))) (=> (= (f63 ?v0 ?v1) f1) (=> (= (f62 f61 ?v2) f1) (=> (= (f62 ?v2 f48) f1) (= (f62 (f52 ?v_0 ?v1) (f52 ?v_0 ?v0)) f1)))))))
(assert (forall ((?v0 S19) (?v1 S8)) (=> (not (= ?v0 f61)) (not (= (f52 (f53 f54 ?v0) ?v1) f61)))))
(assert (forall ((?v0 S2) (?v1 S8)) (=> (not (= ?v0 f37)) (not (= (f30 (f31 f32 ?v0) ?v1) f37)))))
(assert (forall ((?v0 S4) (?v1 S8)) (=> (not (= ?v0 f36)) (not (= (f11 (f12 f13 ?v0) ?v1) f36)))))
(assert (forall ((?v0 S19) (?v1 S19) (?v2 S8)) (=> (= (f47 ?v0 ?v1) f1) (=> (= (f62 f61 ?v0) f1) (=> (= (f40 f35 ?v2) f1) (= (f47 (f52 (f53 f54 ?v0) ?v2) (f52 (f53 f54 ?v1) ?v2)) f1))))))
(assert (forall ((?v0 S2) (?v1 S2) (?v2 S8)) (=> (= (f3 ?v0 ?v1) f1) (=> (= (f24 f37 ?v0) f1) (=> (= (f40 f35 ?v2) f1) (= (f3 (f30 (f31 f32 ?v0) ?v2) (f30 (f31 f32 ?v1) ?v2)) f1))))))
(assert (forall ((?v0 S8) (?v1 S8) (?v2 S8)) (=> (= (f40 ?v0 ?v1) f1) (=> (= (f63 f35 ?v0) f1) (=> (= (f40 f35 ?v2) f1) (= (f40 (f42 (f43 f45 ?v0) ?v2) (f42 (f43 f45 ?v1) ?v2)) f1))))))
(assert (forall ((?v0 S8)) (= (f42 (f43 f45 f35) ?v0) (ite (= ?v0 f35) f41 f35))))
(assert (forall ((?v0 S8)) (= (f30 (f31 f32 f37) ?v0) (ite (= ?v0 f35) f23 f37))))
(assert (forall ((?v0 S8)) (= (f11 (f12 f13 f36) ?v0) (ite (= ?v0 f35) f9 f36))))
(assert (forall ((?v0 S8)) (= (f52 (f53 f54 f61) ?v0) (ite (= ?v0 f35) f48 f61))))
(assert (forall ((?v0 S2)) (= (= (f3 f37 (f25 f56 ?v0)) f1) (not (= ?v0 f37)))))
(assert (forall ((?v0 S4)) (= (= (f3 f37 (f4 f5 ?v0)) f1) (not (= ?v0 f36)))))
(assert (forall ((?v0 S2) (?v1 S2)) (= (f24 (f25 (f26 f29 (f25 f56 ?v0)) (f25 f56 ?v1)) (f25 f56 (f25 (f26 f29 ?v0) ?v1))) f1)))
(assert (forall ((?v0 S4) (?v1 S4)) (= (f24 (f25 (f26 f29 (f4 f5 ?v0)) (f4 f5 ?v1)) (f4 f5 (f6 (f7 f66 ?v0) ?v1))) f1)))
(assert (forall ((?v0 S2) (?v1 S2)) (= (f24 (f25 f56 (f25 (f26 f29 ?v0) ?v1)) (f25 (f26 f27 (f25 f56 ?v0)) (f25 f56 ?v1))) f1)))
(assert (forall ((?v0 S4) (?v1 S4)) (= (f24 (f4 f5 (f6 (f7 f66 ?v0) ?v1)) (f25 (f26 f27 (f4 f5 ?v0)) (f4 f5 ?v1))) f1)))
(assert (forall ((?v0 S5)) (= (= (f33 ?v0) f1) (forall ((?v1 S4) (?v2 S4)) (= (f6 ?v0 ?v1) (f6 ?v0 ?v2))))))
(assert (forall ((?v0 S8) (?v1 S8) (?v2 S8)) (let ((?v_0 (f43 f45 ?v2))) (=> (= (f63 ?v0 ?v1) f1) (=> (= (f63 f41 ?v2) f1) (= (f63 (f42 ?v_0 ?v0) (f42 ?v_0 ?v1)) f1))))))
(assert (forall ((?v0 S8) (?v1 S8) (?v2 S2)) (let ((?v_0 (f31 f32 ?v2))) (=> (= (f63 ?v0 ?v1) f1) (=> (= (f24 f23 ?v2) f1) (= (f24 (f30 ?v_0 ?v0) (f30 ?v_0 ?v1)) f1))))))
(assert (forall ((?v0 S8) (?v1 S8) (?v2 S19)) (let ((?v_0 (f53 f54 ?v2))) (=> (= (f63 ?v0 ?v1) f1) (=> (= (f62 f48 ?v2) f1) (= (f62 (f52 ?v_0 ?v0) (f52 ?v_0 ?v1)) f1))))))
(assert (forall ((?v0 S19) (?v1 S8) (?v2 S19)) (=> (= (f47 (f52 (f53 f54 ?v0) ?v1) (f52 (f53 f54 ?v2) ?v1)) f1) (=> (= (f62 f61 ?v2) f1) (= (f47 ?v0 ?v2) f1)))))
(assert (forall ((?v0 S2) (?v1 S8) (?v2 S2)) (=> (= (f3 (f30 (f31 f32 ?v0) ?v1) (f30 (f31 f32 ?v2) ?v1)) f1) (=> (= (f24 f37 ?v2) f1) (= (f3 ?v0 ?v2) f1)))))
(assert (forall ((?v0 S8) (?v1 S8) (?v2 S8)) (=> (= (f40 (f42 (f43 f45 ?v0) ?v1) (f42 (f43 f45 ?v2) ?v1)) f1) (=> (= (f63 f35 ?v2) f1) (= (f40 ?v0 ?v2) f1)))))
(assert (forall ((?v0 S2) (?v1 S2)) (= (f14 f15 (f25 (f26 f29 ?v0) ?v1)) (f6 (f7 f66 (f14 f15 ?v0)) (f14 f15 ?v1)))))
(assert (forall ((?v0 S2) (?v1 S2)) (= (f25 f55 (f25 (f26 f29 ?v0) ?v1)) (f25 (f26 f29 (f25 f55 ?v0)) (f25 f55 ?v1)))))
(assert (forall ((?v0 S2) (?v1 S2)) (= (f14 f15 (f25 (f26 f29 ?v0) ?v1)) (f6 (f7 f66 (f14 f15 ?v0)) (f14 f15 ?v1)))))
(assert (forall ((?v0 S2) (?v1 S2)) (= (f25 f55 (f25 (f26 f29 ?v0) ?v1)) (f25 (f26 f29 (f25 f55 ?v0)) (f25 f55 ?v1)))))
(assert (forall ((?v0 S8) (?v1 S8) (?v2 S8)) (let ((?v_0 (f43 f45 ?v0))) (= (f42 ?v_0 (f42 (f43 f57 ?v1) ?v2)) (f42 (f43 f44 (f42 ?v_0 ?v1)) (f42 ?v_0 ?v2))))))
(assert (forall ((?v0 S2) (?v1 S8) (?v2 S8)) (let ((?v_0 (f31 f32 ?v0))) (= (f30 ?v_0 (f42 (f43 f57 ?v1) ?v2)) (f25 (f26 f46 (f30 ?v_0 ?v1)) (f30 ?v_0 ?v2))))))
(assert (forall ((?v0 S4) (?v1 S8) (?v2 S8)) (let ((?v_0 (f12 f13 ?v0))) (= (f11 ?v_0 (f42 (f43 f57 ?v1) ?v2)) (f6 (f7 f10 (f11 ?v_0 ?v1)) (f11 ?v_0 ?v2))))))
(assert (forall ((?v0 S19) (?v1 S8) (?v2 S8)) (let ((?v_0 (f53 f54 ?v0))) (= (f52 ?v_0 (f42 (f43 f57 ?v1) ?v2)) (f49 (f50 f51 (f52 ?v_0 ?v1)) (f52 ?v_0 ?v2))))))
(assert (forall ((?v0 S19) (?v1 S8)) (=> (= (f47 f61 ?v0) f1) (= (f47 f61 (f52 (f53 f54 ?v0) ?v1)) f1))))
(assert (forall ((?v0 S2) (?v1 S8)) (=> (= (f3 f37 ?v0) f1) (= (f3 f37 (f30 (f31 f32 ?v0) ?v1)) f1))))
(assert (forall ((?v0 S8) (?v1 S8)) (=> (= (f40 f35 ?v0) f1) (= (f40 f35 (f42 (f43 f45 ?v0) ?v1)) f1))))
(assert (forall ((?v0 S8)) (= (f42 (f43 f45 ?v0) f35) f41)))
(assert (forall ((?v0 S2)) (= (f30 (f31 f32 ?v0) f35) f23)))
(assert (forall ((?v0 S4)) (= (f11 (f12 f13 ?v0) f35) f9)))
(assert (forall ((?v0 S19)) (= (f52 (f53 f54 ?v0) f35) f48)))
(assert (forall ((?v0 S2)) (not (= (f3 (f25 f56 ?v0) f37) f1))))
(assert (forall ((?v0 S4)) (not (= (f3 (f4 f5 ?v0) f37) f1))))
(assert (forall ((?v0 S2) (?v1 S2) (?v2 S2)) (= (f25 (f26 f46 (f25 (f26 f29 ?v0) ?v1)) ?v2) (f25 (f26 f29 (f25 (f26 f46 ?v0) ?v2)) (f25 (f26 f46 ?v1) ?v2)))))
(assert (forall ((?v0 S4) (?v1 S4) (?v2 S4)) (= (f6 (f7 f10 (f6 (f7 f66 ?v0) ?v1)) ?v2) (f6 (f7 f66 (f6 (f7 f10 ?v0) ?v2)) (f6 (f7 f10 ?v1) ?v2)))))
(assert (forall ((?v0 S2) (?v1 S2) (?v2 S2)) (= (f25 (f26 f46 (f25 (f26 f29 ?v0) ?v1)) ?v2) (f25 (f26 f29 (f25 (f26 f46 ?v0) ?v2)) (f25 (f26 f46 ?v1) ?v2)))))
(assert (forall ((?v0 S4) (?v1 S4) (?v2 S4)) (= (f6 (f7 f10 (f6 (f7 f66 ?v0) ?v1)) ?v2) (f6 (f7 f66 (f6 (f7 f10 ?v0) ?v2)) (f6 (f7 f10 ?v1) ?v2)))))
(assert (forall ((?v0 S2) (?v1 S2) (?v2 S2)) (let ((?v_0 (f26 f46 ?v0))) (= (f25 ?v_0 (f25 (f26 f29 ?v1) ?v2)) (f25 (f26 f29 (f25 ?v_0 ?v1)) (f25 ?v_0 ?v2))))))
(assert (forall ((?v0 S4) (?v1 S4) (?v2 S4)) (let ((?v_0 (f7 f10 ?v0))) (= (f6 ?v_0 (f6 (f7 f66 ?v1) ?v2)) (f6 (f7 f66 (f6 ?v_0 ?v1)) (f6 ?v_0 ?v2))))))
(assert (forall ((?v0 S2) (?v1 S2) (?v2 S2)) (let ((?v_0 (f26 f46 ?v0))) (= (f25 ?v_0 (f25 (f26 f29 ?v1) ?v2)) (f25 (f26 f29 (f25 ?v_0 ?v1)) (f25 ?v_0 ?v2))))))
(assert (forall ((?v0 S4) (?v1 S4) (?v2 S4)) (let ((?v_0 (f7 f10 ?v0))) (= (f6 ?v_0 (f6 (f7 f66 ?v1) ?v2)) (f6 (f7 f66 (f6 ?v_0 ?v1)) (f6 ?v_0 ?v2))))))
(assert (forall ((?v0 S2) (?v1 S8)) (= (f25 f28 (f30 (f31 f32 ?v0) ?v1)) (f30 (f31 f32 (f25 f28 ?v0)) ?v1))))
(assert (forall ((?v0 S19) (?v1 S8)) (= (f49 f64 (f52 (f53 f54 ?v0) ?v1)) (f52 (f53 f54 (f49 f64 ?v0)) ?v1))))
(assert (forall ((?v0 S2)) (let ((?v_0 (f25 f56 ?v0))) (= (f25 f28 ?v_0) ?v_0))))
(assert (forall ((?v0 S4)) (let ((?v_0 (f4 f5 ?v0))) (= (f25 f28 ?v_0) ?v_0))))
(assert (forall ((?v0 S2) (?v1 S2)) (= (f25 f56 (f25 (f26 f29 ?v0) ?v1)) (f25 f56 (f25 (f26 f29 ?v1) ?v0)))))
(assert (forall ((?v0 S4) (?v1 S4)) (= (f4 f5 (f6 (f7 f66 ?v0) ?v1)) (f4 f5 (f6 (f7 f66 ?v1) ?v0)))))
(assert (forall ((?v0 S8) (?v1 S8) (?v2 S8)) (let ((?v_0 (f43 f45 ?v0))) (=> (= (f40 f41 ?v0) f1) (=> (= (f63 (f42 ?v_0 ?v1) (f42 ?v_0 ?v2)) f1) (= (f63 ?v1 ?v2) f1))))))
(assert (forall ((?v0 S2) (?v1 S8) (?v2 S8)) (let ((?v_0 (f31 f32 ?v0))) (=> (= (f3 f23 ?v0) f1) (=> (= (f24 (f30 ?v_0 ?v1) (f30 ?v_0 ?v2)) f1) (= (f63 ?v1 ?v2) f1))))))
(assert (forall ((?v0 S19) (?v1 S8) (?v2 S8)) (let ((?v_0 (f53 f54 ?v0))) (=> (= (f47 f48 ?v0) f1) (=> (= (f62 (f52 ?v_0 ?v1) (f52 ?v_0 ?v2)) f1) (= (f63 ?v1 ?v2) f1))))))
(assert (forall ((?v0 S8) (?v1 S8) (?v2 S8)) (let ((?v_0 (f43 f45 ?v0))) (=> (= (f40 f41 ?v0) f1) (= (= (f63 (f42 ?v_0 ?v1) (f42 ?v_0 ?v2)) f1) (= (f63 ?v1 ?v2) f1))))))
(assert (forall ((?v0 S2) (?v1 S8) (?v2 S8)) (let ((?v_0 (f31 f32 ?v0))) (=> (= (f3 f23 ?v0) f1) (= (= (f24 (f30 ?v_0 ?v1) (f30 ?v_0 ?v2)) f1) (= (f63 ?v1 ?v2) f1))))))
(assert (forall ((?v0 S19) (?v1 S8) (?v2 S8)) (let ((?v_0 (f53 f54 ?v0))) (=> (= (f47 f48 ?v0) f1) (= (= (f62 (f52 ?v_0 ?v1) (f52 ?v_0 ?v2)) f1) (= (f63 ?v1 ?v2) f1))))))
(assert (forall ((?v0 S2) (?v1 S8)) (= (f30 (f31 f32 (f25 f60 ?v0)) ?v1) (f25 (f26 f46 (f30 (f31 f32 (f25 f60 f23)) ?v1)) (f30 (f31 f32 ?v0) ?v1)))))
(assert (forall ((?v0 S4) (?v1 S8)) (= (f11 (f12 f13 (f6 f39 ?v0)) ?v1) (f6 (f7 f10 (f11 (f12 f13 (f6 f39 f9)) ?v1)) (f11 (f12 f13 ?v0) ?v1)))))
(assert (forall ((?v0 S19) (?v1 S8)) (= (f52 (f53 f54 (f49 f65 ?v0)) ?v1) (f49 (f50 f51 (f52 (f53 f54 (f49 f65 f48)) ?v1)) (f52 (f53 f54 ?v0) ?v1)))))
(assert (forall ((?v0 S8) (?v1 S8) (?v2 S8)) (let ((?v_0 (f43 f45 ?v2))) (=> (= (f40 ?v0 ?v1) f1) (=> (= (f40 f35 ?v2) f1) (=> (= (f40 ?v2 f41) f1) (= (f40 (f42 ?v_0 ?v1) (f42 ?v_0 ?v0)) f1)))))))
(assert (forall ((?v0 S8) (?v1 S8) (?v2 S2)) (let ((?v_0 (f31 f32 ?v2))) (=> (= (f40 ?v0 ?v1) f1) (=> (= (f3 f37 ?v2) f1) (=> (= (f3 ?v2 f23) f1) (= (f3 (f30 ?v_0 ?v1) (f30 ?v_0 ?v0)) f1)))))))
(assert (forall ((?v0 S8) (?v1 S8) (?v2 S19)) (let ((?v_0 (f53 f54 ?v2))) (=> (= (f40 ?v0 ?v1) f1) (=> (= (f47 f61 ?v2) f1) (=> (= (f47 ?v2 f48) f1) (= (f47 (f52 ?v_0 ?v1) (f52 ?v_0 ?v0)) f1)))))))
(assert (forall ((?v0 S8) (?v1 S8)) (=> (= (f40 f41 ?v0) f1) (=> (= (f40 f35 ?v1) f1) (= (f40 f41 (f42 (f43 f45 ?v0) ?v1)) f1)))))
(assert (forall ((?v0 S2) (?v1 S8)) (=> (= (f3 f23 ?v0) f1) (=> (= (f40 f35 ?v1) f1) (= (f3 f23 (f30 (f31 f32 ?v0) ?v1)) f1)))))
(assert (forall ((?v0 S19) (?v1 S8)) (=> (= (f47 f48 ?v0) f1) (=> (= (f40 f35 ?v1) f1) (= (f47 f48 (f52 (f53 f54 ?v0) ?v1)) f1)))))
(assert (forall ((?v0 S2) (?v1 S2) (?v2 S2) (?v3 S2)) (= (f24 (f25 f56 (f25 (f26 f29 (f25 (f26 f27 ?v0) ?v1)) (f25 (f26 f27 ?v2) ?v3))) (f25 (f26 f27 (f25 f56 (f25 (f26 f29 ?v0) ?v2))) (f25 f56 (f25 (f26 f29 ?v1) ?v3)))) f1)))
(assert (forall ((?v0 S4) (?v1 S4) (?v2 S4) (?v3 S4)) (= (f24 (f4 f5 (f6 (f7 f66 (f6 (f7 f8 ?v0) ?v1)) (f6 (f7 f8 ?v2) ?v3))) (f25 (f26 f27 (f4 f5 (f6 (f7 f66 ?v0) ?v2))) (f4 f5 (f6 (f7 f66 ?v1) ?v3)))) f1)))
(assert (forall ((?v0 S2) (?v1 S2)) (= (f24 (f25 (f26 f29 (f25 f56 ?v0)) (f25 f56 ?v1)) (f25 f56 (f25 (f26 f27 ?v0) ?v1))) f1)))
(assert (forall ((?v0 S4) (?v1 S4)) (= (f24 (f25 (f26 f29 (f4 f5 ?v0)) (f4 f5 ?v1)) (f4 f5 (f6 (f7 f8 ?v0) ?v1))) f1)))
(assert (forall ((?v0 S8) (?v1 S8)) (let ((?v_0 (f42 (f43 f45 ?v0) ?v1))) (=> (= (f40 f35 ?v0) f1) (=> (= (f40 ?v0 f41) f1) (= (f40 (f42 (f43 f44 ?v0) ?v_0) ?v_0) f1))))))
(assert (forall ((?v0 S2) (?v1 S8)) (let ((?v_0 (f30 (f31 f32 ?v0) ?v1))) (=> (= (f3 f37 ?v0) f1) (=> (= (f3 ?v0 f23) f1) (= (f3 (f25 (f26 f46 ?v0) ?v_0) ?v_0) f1))))))
(assert (forall ((?v0 S19) (?v1 S8)) (let ((?v_0 (f52 (f53 f54 ?v0) ?v1))) (=> (= (f47 f61 ?v0) f1) (=> (= (f47 ?v0 f48) f1) (= (f47 (f49 (f50 f51 ?v0) ?v_0) ?v_0) f1))))))
(assert (forall ((?v0 S2) (?v1 S2) (?v2 S2) (?v3 S2)) (let ((?v_1 (f26 f46 ?v2)) (?v_0 (f26 f46 (f25 (f26 f29 ?v0) ?v2))) (?v_2 (f25 (f26 f29 ?v1) ?v3))) (= (f25 (f26 f29 (f25 (f26 f46 ?v0) ?v1)) (f25 ?v_1 ?v3)) (f25 (f26 f27 (f25 (f26 f27 (f25 ?v_0 ?v_2)) (f25 ?v_0 ?v3))) (f25 ?v_1 ?v_2))))))
(assert (forall ((?v0 S4) (?v1 S4) (?v2 S4) (?v3 S4)) (let ((?v_1 (f7 f10 ?v2)) (?v_0 (f7 f10 (f6 (f7 f66 ?v0) ?v2))) (?v_2 (f6 (f7 f66 ?v1) ?v3))) (= (f6 (f7 f66 (f6 (f7 f10 ?v0) ?v1)) (f6 ?v_1 ?v3)) (f6 (f7 f8 (f6 (f7 f8 (f6 ?v_0 ?v_2)) (f6 ?v_0 ?v3))) (f6 ?v_1 ?v_2))))))
(assert (forall ((?v0 S8) (?v1 S8)) (=> (= (f63 f41 ?v0) f1) (= (f63 f41 (f42 (f43 f45 ?v0) ?v1)) f1))))
(assert (forall ((?v0 S2) (?v1 S8)) (=> (= (f24 f23 ?v0) f1) (= (f24 f23 (f30 (f31 f32 ?v0) ?v1)) f1))))
(assert (forall ((?v0 S19) (?v1 S8)) (=> (= (f62 f48 ?v0) f1) (= (f62 f48 (f52 (f53 f54 ?v0) ?v1)) f1))))
(assert (forall ((?v0 S2) (?v1 S2)) (= (f24 (f25 f56 (f25 (f26 f46 ?v0) ?v1)) (f25 (f26 f46 (f25 f56 ?v0)) (f25 f56 ?v1))) f1)))
(assert (forall ((?v0 S4) (?v1 S4)) (= (f24 (f4 f5 (f6 (f7 f10 ?v0) ?v1)) (f25 (f26 f46 (f4 f5 ?v0)) (f4 f5 ?v1))) f1)))
(assert (forall ((?v0 S2) (?v1 S2)) (= (f24 (f25 f56 (f25 (f26 f27 ?v0) ?v1)) (f25 (f26 f27 (f25 f56 ?v0)) (f25 f56 ?v1))) f1)))
(assert (forall ((?v0 S4) (?v1 S4)) (= (f24 (f4 f5 (f6 (f7 f8 ?v0) ?v1)) (f25 (f26 f27 (f4 f5 ?v0)) (f4 f5 ?v1))) f1)))
(assert (forall ((?v0 S2) (?v1 S2)) (= (= (f14 f15 ?v0) (f14 f15 ?v1)) (= ?v0 ?v1))))
(assert (forall ((?v0 S2) (?v1 S2)) (= (= (f25 f55 ?v0) (f25 f55 ?v1)) (= ?v0 ?v1))))
(assert (forall ((?v0 S2)) (= (f4 f5 (f14 f15 ?v0)) (f25 f28 ?v0))))
(assert (forall ((?v0 S2)) (= (f25 f56 (f25 f55 ?v0)) (f25 f28 ?v0))))
(assert (forall ((?v0 S2) (?v1 S8)) (= (f24 (f25 f56 (f30 (f31 f32 ?v0) ?v1)) (f30 (f31 f32 (f25 f56 ?v0)) ?v1)) f1)))
(assert (forall ((?v0 S4) (?v1 S8)) (= (f24 (f4 f5 (f11 (f12 f13 ?v0) ?v1)) (f30 (f31 f32 (f4 f5 ?v0)) ?v1)) f1)))
(assert (forall ((?v0 S4) (?v1 S4)) (= (f24 (f4 f5 ?v0) (f25 (f26 f27 (f4 f5 (f6 (f7 f8 ?v0) ?v1))) (f4 f5 ?v1))) f1)))
(assert (forall ((?v0 S2) (?v1 S2) (?v2 S2)) (= (f25 (f26 f46 (f25 (f26 f27 ?v0) ?v1)) ?v2) (f25 (f26 f27 (f25 (f26 f46 ?v0) ?v2)) (f25 (f26 f46 ?v1) ?v2)))))
(assert (forall ((?v0 S4) (?v1 S4) (?v2 S4)) (= (f6 (f7 f10 (f6 (f7 f8 ?v0) ?v1)) ?v2) (f6 (f7 f8 (f6 (f7 f10 ?v0) ?v2)) (f6 (f7 f10 ?v1) ?v2)))))
(assert (forall ((?v0 S2) (?v1 S2) (?v2 S2)) (= (f25 (f26 f46 (f25 (f26 f27 ?v0) ?v1)) ?v2) (f25 (f26 f27 (f25 (f26 f46 ?v0) ?v2)) (f25 (f26 f46 ?v1) ?v2)))))
(assert (forall ((?v0 S4) (?v1 S4) (?v2 S4)) (= (f6 (f7 f10 (f6 (f7 f8 ?v0) ?v1)) ?v2) (f6 (f7 f8 (f6 (f7 f10 ?v0) ?v2)) (f6 (f7 f10 ?v1) ?v2)))))
(assert (forall ((?v0 S2) (?v1 S2) (?v2 S2)) (let ((?v_0 (f26 f46 ?v0))) (= (f25 ?v_0 (f25 (f26 f27 ?v1) ?v2)) (f25 (f26 f27 (f25 ?v_0 ?v1)) (f25 ?v_0 ?v2))))))
(assert (forall ((?v0 S4) (?v1 S4) (?v2 S4)) (let ((?v_0 (f7 f10 ?v0))) (= (f6 ?v_0 (f6 (f7 f8 ?v1) ?v2)) (f6 (f7 f8 (f6 ?v_0 ?v1)) (f6 ?v_0 ?v2))))))
(assert (forall ((?v0 S2) (?v1 S2) (?v2 S2)) (let ((?v_0 (f26 f46 ?v0))) (= (f25 ?v_0 (f25 (f26 f27 ?v1) ?v2)) (f25 (f26 f27 (f25 ?v_0 ?v1)) (f25 ?v_0 ?v2))))))
(assert (forall ((?v0 S4) (?v1 S4) (?v2 S4)) (let ((?v_0 (f7 f10 ?v0))) (= (f6 ?v_0 (f6 (f7 f8 ?v1) ?v2)) (f6 (f7 f8 (f6 ?v_0 ?v1)) (f6 ?v_0 ?v2))))))
(assert (forall ((?v0 S8) (?v1 S8) (?v2 S8)) (= (f42 (f43 f45 (f42 (f43 f44 ?v0) ?v1)) ?v2) (f42 (f43 f44 (f42 (f43 f45 ?v0) ?v2)) (f42 (f43 f45 ?v1) ?v2)))))
(assert (forall ((?v0 S2) (?v1 S2) (?v2 S8)) (= (f30 (f31 f32 (f25 (f26 f46 ?v0) ?v1)) ?v2) (f25 (f26 f46 (f30 (f31 f32 ?v0) ?v2)) (f30 (f31 f32 ?v1) ?v2)))))
(assert (forall ((?v0 S4) (?v1 S4) (?v2 S8)) (= (f11 (f12 f13 (f6 (f7 f10 ?v0) ?v1)) ?v2) (f6 (f7 f10 (f11 (f12 f13 ?v0) ?v2)) (f11 (f12 f13 ?v1) ?v2)))))
(assert (forall ((?v0 S19) (?v1 S19) (?v2 S8)) (= (f52 (f53 f54 (f49 (f50 f51 ?v0) ?v1)) ?v2) (f49 (f50 f51 (f52 (f53 f54 ?v0) ?v2)) (f52 (f53 f54 ?v1) ?v2)))))
(assert (forall ((?v0 S8) (?v1 S8)) (let ((?v_0 (f42 (f43 f45 ?v0) ?v1))) (= (f42 (f43 f44 ?v_0) ?v0) (f42 (f43 f44 ?v0) ?v_0)))))
(assert (forall ((?v0 S2) (?v1 S8)) (let ((?v_0 (f30 (f31 f32 ?v0) ?v1))) (= (f25 (f26 f46 ?v_0) ?v0) (f25 (f26 f46 ?v0) ?v_0)))))
(assert (forall ((?v0 S4) (?v1 S8)) (let ((?v_0 (f11 (f12 f13 ?v0) ?v1))) (= (f6 (f7 f10 ?v_0) ?v0) (f6 (f7 f10 ?v0) ?v_0)))))
(assert (forall ((?v0 S19) (?v1 S8)) (let ((?v_0 (f52 (f53 f54 ?v0) ?v1))) (= (f49 (f50 f51 ?v_0) ?v0) (f49 (f50 f51 ?v0) ?v_0)))))
(assert (forall ((?v0 S8)) (= (f42 (f43 f45 f41) ?v0) f41)))
(assert (forall ((?v0 S8)) (= (f30 (f31 f32 f23) ?v0) f23)))
(assert (forall ((?v0 S8)) (= (f11 (f12 f13 f9) ?v0) f9)))
(assert (forall ((?v0 S8)) (= (f52 (f53 f54 f48) ?v0) f48)))
(assert (forall ((?v0 S2) (?v1 S2)) (= (f25 f56 (f25 (f26 f46 ?v0) ?v1)) (f25 (f26 f46 (f25 f56 ?v0)) (f25 f56 ?v1)))))
(assert (forall ((?v0 S4) (?v1 S4)) (= (f4 f5 (f6 (f7 f10 ?v0) ?v1)) (f25 (f26 f46 (f4 f5 ?v0)) (f4 f5 ?v1)))))
(assert (forall ((?v0 S2) (?v1 S8)) (= (f25 f56 (f30 (f31 f32 ?v0) ?v1)) (f30 (f31 f32 (f25 f56 ?v0)) ?v1))))
(assert (forall ((?v0 S4) (?v1 S8)) (= (f4 f5 (f11 (f12 f13 ?v0) ?v1)) (f30 (f31 f32 (f4 f5 ?v0)) ?v1))))
(assert (forall ((?v0 S2) (?v1 S2)) (= (f14 f15 (f25 (f26 f46 ?v0) ?v1)) (f6 (f7 f10 (f14 f15 ?v0)) (f14 f15 ?v1)))))
(assert (forall ((?v0 S2) (?v1 S2)) (= (f25 f55 (f25 (f26 f46 ?v0) ?v1)) (f25 (f26 f46 (f25 f55 ?v0)) (f25 f55 ?v1)))))
(assert (forall ((?v0 S2) (?v1 S2)) (= (f14 f15 (f25 (f26 f27 ?v0) ?v1)) (f6 (f7 f8 (f14 f15 ?v0)) (f14 f15 ?v1)))))
(assert (forall ((?v0 S2) (?v1 S2)) (= (f25 f55 (f25 (f26 f27 ?v0) ?v1)) (f25 (f26 f27 (f25 f55 ?v0)) (f25 f55 ?v1)))))
(assert (forall ((?v0 S2) (?v1 S2)) (= (f14 f15 (f25 (f26 f27 ?v0) ?v1)) (f6 (f7 f8 (f14 f15 ?v0)) (f14 f15 ?v1)))))
(assert (forall ((?v0 S2) (?v1 S2)) (= (f25 f55 (f25 (f26 f27 ?v0) ?v1)) (f25 (f26 f27 (f25 f55 ?v0)) (f25 f55 ?v1)))))
(check-sat)
(exit)
